networks/zoo_96_1188/zoo_96_1188.txt
Number of groups: 44
Flow 1: {41 2} {2 53} 
Flow 6: {17 16} {16 67} 
Flow 26: {1 41} {41 43} {43 94} 
Flow 65: {4 3} {3 54} 
Flow 74: {2 20} {20 7} {7 58} 
Flow 113: {23 74} 
Flow 123: {6 5} {5 8} {8 38} {38 89} 
Flow 126: {8 2} {2 41} {41 27} {27 45} {45 96} 
Flow 130: {20 2} {2 8} {8 5} {5 56} 
Flow 158: {9 43} {43 41} {41 92} 
Flow 161: {7 42} {42 36} {36 45} {45 44} {44 95} 
Flow 169: {19 10} {10 61} 
Flow 213: {26 23} {23 24} {24 75} 
Flow 240: {10 19} {19 33} {33 32} {32 30} {30 81} 
Flow 269: {11 21} {21 35} {35 30} {30 31} 
Flow 272: {11 34} {34 85} 
Flow 287: {12 18} {18 17} {17 68} 
Flow 312: {14 34} {34 11} {11 62} 
Flow 341: {15 16} {16 17} {17 22} {22 21} 
Flow 475: {18 12} {12 63} 
Flow 581: {34 21} {21 72} 
Flow 583: {24 23} {23 26} {26 25} {25 76} 
Flow 588: {30 32} {32 83} 
Flow 610: {25 28} {28 34} {34 14} {14 29} {29 80} 
Flow 627: {17 13} {13 64} 
Flow 707: {29 21} {21 22} {22 17} {17 18} {18 69} 
Flow 711: {29 14} 
Flow 784: {31 32} {32 33} {33 84} 
Flow 786: {31 30} {30 35} {35 86} 
Flow 817: {21 34} {34 28} {28 79} 
Flow 820: {32 31} {31 82} 
Flow 824: {35 21} {21 27} {27 36} {36 87} 
Flow 893: {21 11} 
Flow 921: {36 27} {27 41} {41 1} {1 52} 
Flow 928: {42 7} {7 9} {9 60} 
Flow 936: {33 19} {19 70} 
Flow 972: {37 3} {3 27} {27 78} 
Flow 1017: {39 38} {38 8} {8 59} 
Flow 1045: {40 20} {20 71} 
Flow 1049: {28 25} {25 26} {26 77} 
Flow 1082: {27 21} {21 29} 
Flow 1134: {43 9} {9 7} {7 20} {20 40} {40 91} 
Flow 1149: {44 45} {45 36} {36 42} {42 93} 
Flow 1154: {45 27} {27 3} {3 4} {4 55} 
Time taken running everything: 74 seconds
